40
11	14	15	19	22	27	30	32	34	35	36	37	38	39	0
3	8	9	10	12	16	18	23	24	26	27	29	30	32	36	37	40	0
2	4	7	9	12	16	17	20	21	23	24	26	29	30	31	33	34	35	0
3	7	12	16	17	20	25	26	27	31	32	33	36	38	40	0
7	10	11	12	15	16	17	18	33	34	35	37	38	40	0
7	9	11	12	15	16	18	19	21	23	24	25	27	28	29	30	31	32	34	35	38	40	0
3	4	5	6	8	11	19	20	22	23	25	26	27	30	38	39	0
2	7	10	14	18	19	22	23	24	26	30	32	33	34	36	37	38	0
2	3	6	10	13	14	19	20	23	24	28	29	30	34	35	36	38	39	0
2	5	8	9	13	21	23	25	27	33	37	39	0
1	5	6	7	12	14	16	17	18	21	24	27	28	29	30	31	34	36	38	39	0
2	3	4	5	6	11	13	14	16	17	18	20	21	22	24	26	31	33	35	36	38	39	0
9	10	12	14	23	25	28	30	31	33	37	0
1	8	9	11	12	13	15	16	17	18	21	22	24	26	28	29	34	35	37	38	39	40	0
1	5	6	14	17	18	19	20	21	22	24	25	26	28	29	30	32	33	34	38	0
2	3	4	5	6	11	12	14	18	19	21	22	24	30	32	38	39	40	0
3	4	5	11	12	14	15	21	22	25	27	28	30	33	37	38	39	40	0
2	5	6	8	11	12	14	15	16	22	23	24	25	26	29	30	31	32	35	36	38	39	40	0
1	6	7	8	9	15	16	20	22	24	25	26	29	30	31	32	35	36	37	38	40	0
3	4	7	9	12	15	19	21	26	27	30	31	32	34	36	39	0
3	6	10	11	12	14	15	16	17	20	25	26	27	28	29	30	32	33	34	35	36	39	0
1	7	8	12	14	15	16	17	18	19	23	25	27	28	32	33	35	36	37	40	0
2	3	6	7	8	9	10	13	18	22	24	27	28	29	31	32	33	36	37	38	39	0
2	3	6	8	9	11	12	14	15	16	18	19	23	25	26	28	29	31	33	35	36	37	38	39	40	0
4	6	7	10	13	15	17	18	19	21	22	24	26	28	30	32	33	35	38	39	0
2	3	4	7	8	12	14	15	18	19	20	21	24	25	27	29	33	37	39	40	0
1	2	4	6	7	10	11	17	20	21	22	23	26	29	30	31	32	34	35	39	40	0
6	9	11	13	14	15	17	21	22	23	24	25	29	34	35	37	38	40	0
2	3	6	9	11	14	15	18	19	21	23	24	26	27	28	30	31	33	35	36	37	39	40	0
1	2	3	6	7	8	9	11	13	15	16	17	18	19	20	21	25	27	29	31	32	33	35	38	0
3	4	6	11	12	13	18	19	20	23	24	27	29	30	32	36	37	38	39	40	0
1	2	4	6	8	15	16	18	19	20	21	22	23	25	27	30	31	34	35	36	37	0
3	4	5	8	10	12	13	15	17	21	22	23	24	25	26	29	30	34	39	0
1	3	5	6	8	9	11	14	15	20	21	27	28	32	33	36	37	0
1	3	5	6	9	12	14	18	19	21	22	24	25	27	28	29	30	32	36	37	38	39	40	0
1	2	4	8	9	11	12	18	19	20	21	22	23	24	29	31	32	34	35	37	38	40	0
1	2	5	8	10	13	14	17	19	22	23	24	26	28	29	31	32	34	35	36	38	39	40	0
1	4	5	6	7	8	9	11	12	14	15	16	17	18	19	23	24	25	28	30	31	35	36	37	40	0
1	7	9	10	11	12	14	16	17	18	20	21	23	24	25	26	27	29	31	33	35	37	0
2	4	5	6	14	16	17	18	19	22	24	26	27	28	29	31	35	36	37	38	0


comments:
random graph
nodes 40
edges 390
rng seed 335 
